c 6 __UCLIBC_HAS_IPV6__
c 1 __UCLIBC_HAS_THREADS_NATIVE__
c 5 __UCLIBC_HAS_SOCKET__
c 7 __UCLIBC_HAS_IPV4__
c 2 __UCLIBC_HAS_XLOCALE__
c 4 __UCLIBC_HAS_LOCALE__
c 3 __UCLIBC_HAS_THREADS__
p cnf 7 3
-5 -2 -3 -1 4 1
-6 -2 -3 -1 4 1
-7 -2 -3 -1 4 1
